z1,z2,z3,nondominated
2,5,7,0
2,4,7,0
8,2,5,0
6,4,2,0
7,1,8,0
8,6,1,0
8,1,7,0
3,3,8,0
1,9,7,0
5,2,9,0
7,2,4,0
5,7,2,0
4,7,2,0
9,5,2,0
2,5,7,0
7,3,3,0
5,4,3,0
3,4,5,0
3,3,9,0
1,5,7,0
4,5,3,0
3,5,4,0
3,8,3,0
3,10,3,0
1,8,6,0
7,1,8,0
4,3,5,0
4,6,3,0
2,9,5,0
6,8,1,0
3,10,4,0
2,9,4,0
9,2,5,0
2,6,9,0
1,6,8,0
6,6,2,0
1,1,1,0
1,1,1,0
1,1,1,0
1,1,1,0
1,1,1,0
1,1,1,0
